(define-fun hasSoldHouse_29_visible () Bool true)
(declare-const hasSoldHouse_29 Bool)
(define-fun hasBoughtHouse_89_visible () Bool true)
(declare-const hasBoughtHouse_89 Bool)
(define-fun hasMaintLoan_150_visible () Bool true)
(declare-const hasMaintLoan_150 Bool)
(define-fun sellingPrice_233_visible () Bool (and true hasBoughtHouse_89))
(declare-const sellingPrice_233 Real)
(define-fun privateDebt_293_visible () Bool (and true hasBoughtHouse_89))
(declare-const privateDebt_293 Real)
(define-fun privateDebt_524_visible () Bool (and true hasBoughtHouse_89))
(declare-const privateDebt_524 Real)
(define-fun valueResidue_358_visible () Bool (and true hasBoughtHouse_89))
(define-fun valueResidue_358 () Real (- sellingPrice_233 (ite privateDebt_524_visible privateDebt_524 privateDebt_293)))
(push)
(assert (not (xor privateDebt_293_visible privateDebt_524_visible)))
(check-sat)
(pop)
(push)
(assert hasSoldHouse_29_visible)
(check-sat)
(pop)
(push)
(assert hasBoughtHouse_89_visible)
(check-sat)
(pop)
(push)
(assert hasMaintLoan_150_visible)
(check-sat)
(pop)
(push)
(assert sellingPrice_233_visible)
(check-sat)
(pop)
(push)
(assert privateDebt_293_visible)
(check-sat)
(pop)
(push)
(assert valueResidue_358_visible)
(check-sat)
(pop)
(push)
(assert privateDebt_524_visible)
(check-sat)
(pop)
(push)
(assert (not (=> valueResidue_358_visible (and (or privateDebt_524_visible privateDebt_293_visible) sellingPrice_233_visible))))
(check-sat)
(pop)